(set-logic ALL)
(declare-fun var0 () String)
(assert (str.in_re var0 (re.++ (re.* (re.+ (str.to_re "00"))) (re.++ (re.* (re.+ (str.to_re "111"))) (re.++ (re.+ (re.union (str.to_re "2") (str.to_re "3"))) (re.++ (re.* (re.union (str.to_re "4") (str.to_re "555"))) (re.++ (re.+ (re.union (str.to_re "6") (str.to_re "77"))) (re.++ (re.union (re.+ (str.to_re "888")) (re.+ (str.to_re "999"))) (re.++ (re.union (re.union (str.to_re "aaa") (str.to_re "b")) (re.union (str.to_re "c") (str.to_re "d"))) (re.++ (re.* (re.union (str.to_re "eee") (str.to_re "ff"))) (re.++ (re.union (re.union (str.to_re "g") (str.to_re "h")) (re.union (str.to_re "ii") (str.to_re "jjj"))) (re.union (re.* (str.to_re "kk")) (re.* (str.to_re "lll"))))))))))))))
(assert (<= 351 (str.len var0)))
(check-sat)